p cnf 1473
-24 -458
-25 -461
-26 -464
-27 -467
-28 -470
-29 -473
-30 -476
-31 -479
-32 -482
-33 -485
-34 -488
-35 -491
-36 -494
-37 -497
-38 -500
-39 -503
-40 -506
-41 -509
-42 -512
-43 -515
-44 -518
-45 -521
-46 -524
-47 525
-48 526
-49 527
-50 528
-51 529
-52 530
-53 531
-54 532
-55 533
-56 -25
-56 -26
25 26 56
-57 -27
-57 -28
27 28 57
-58 -29
-58 -30
29 30 58
-59 -31
-59 -32
31 32 59
-60 -33
-60 -34
33 34 60
-61 -35
-61 -36
35 36 61
-62 -37
-62 -38
37 38 62
-63 -39
-63 -40
39 40 63
-64 -41
-64 -42
41 42 64
-65 -43
-65 -44
43 44 65
-66 -45
-66 -46
45 46 66
-67 -47
-67 -48
47 48 67
-68 -49
-68 -50
49 50 68
-69 -51
-69 -52
51 52 69
-70 -53
-70 -54
53 54 70
-71 56
-71 57
-56 -57 71
-72 58
-72 59
-58 -59 72
-73 60
-73 61
-60 -61 73
-74 62
-74 63
-62 -63 74
-75 64
-75 65
-64 -65 75
-76 66
-76 67
-66 -67 76
-77 68
-77 69
-68 -69 77
-78 -55
-78 70
55 -70 78
-79 71
-79 72
-71 -72 79
-80 73
-80 74
-73 -74 80
-81 75
-81 76
-75 -76 81
-82 77
-82 78
-77 -78 82
-83 79
-83 80
-79 -80 83
-84 81
-84 82
-81 -82 84
-85 83
-85 84
-83 -84 85
-86 -24
-86 25
24 -25 86
-87 24
-87 -25
-24 25 87
-88 -86
-88 -87
86 87 88
-89 24
-89 25
-24 -25 89
-90 -24
-90 -88
24 88 90
-91 24
-91 88
-24 -88 91
-92 -90
-92 -91
90 91 92
-93 24
-93 -88
-24 88 93
-94 -89
-94 -93
89 93 94
-95 -25
-95 26
25 -26 95
-96 25
-96 -26
-25 26 96
-97 -95
-97 -96
95 96 97
-98 25
-98 26
-25 -26 98
-99 94
-99 -97
-94 97 99
-100 -94
-100 97
94 -97 100
-101 -99
-101 -100
99 100 101
-102 -94
-102 -97
94 97 102
-103 -98
-103 -102
98 102 103
-104 -26
-104 27
26 -27 104
-105 26
-105 -27
-26 27 105
-106 -104
-106 -105
104 105 106
-107 26
-107 27
-26 -27 107
-108 103
-108 -106
-103 106 108
-109 -103
-109 106
103 -106 109
-110 -108
-110 -109
108 109 110
-111 -103
-111 -106
103 106 111
-112 -107
-112 -111
107 111 112
-113 -27
-113 28
27 -28 113
-114 27
-114 -28
-27 28 114
-115 -113
-115 -114
113 114 115
-116 27
-116 28
-27 -28 116
-117 112
-117 -115
-112 115 117
-118 -112
-118 115
112 -115 118
-119 -117
-119 -118
117 118 119
-120 -112
-120 -115
112 115 120
-121 -116
-121 -120
116 120 121
-122 -28
-122 29
28 -29 122
-123 28
-123 -29
-28 29 123
-124 -122
-124 -123
122 123 124
-125 28
-125 29
-28 -29 125
-126 121
-126 -124
-121 124 126
-127 -121
-127 124
121 -124 127
-128 -126
-128 -127
126 127 128
-129 -121
-129 -124
121 124 129
-130 -125
-130 -129
125 129 130
-131 -29
-131 30
29 -30 131
-132 29
-132 -30
-29 30 132
-133 -131
-133 -132
131 132 133
-134 29
-134 30
-29 -30 134
-135 130
-135 -133
-130 133 135
-136 -130
-136 133
130 -133 136
-137 -135
-137 -136
135 136 137
-138 -130
-138 -133
130 133 138
-139 -134
-139 -138
134 138 139
-140 -30
-140 31
30 -31 140
-141 30
-141 -31
-30 31 141
-142 -140
-142 -141
140 141 142
-143 30
-143 31
-30 -31 143
-144 139
-144 -142
-139 142 144
-145 -139
-145 142
139 -142 145
-146 -144
-146 -145
144 145 146
-147 -139
-147 -142
139 142 147
-148 -143
-148 -147
143 147 148
-149 -31
-149 32
31 -32 149
-150 31
-150 -32
-31 32 150
-151 -149
-151 -150
149 150 151
-152 31
-152 32
-31 -32 152
-153 148
-153 -151
-148 151 153
-154 -148
-154 151
148 -151 154
-155 -153
-155 -154
153 154 155
-156 -148
-156 -151
148 151 156
-157 -152
-157 -156
152 156 157
-158 -32
-158 33
32 -33 158
-159 32
-159 -33
-32 33 159
-160 -158
-160 -159
158 159 160
-161 32
-161 33
-32 -33 161
-162 157
-162 -160
-157 160 162
-163 -157
-163 160
157 -160 163
-164 -162
-164 -163
162 163 164
-165 -157
-165 -160
157 160 165
-166 -161
-166 -165
161 165 166
-167 -33
-167 34
33 -34 167
-168 33
-168 -34
-33 34 168
-169 -167
-169 -168
167 168 169
-170 33
-170 34
-33 -34 170
-171 166
-171 -169
-166 169 171
-172 -166
-172 169
166 -169 172
-173 -171
-173 -172
171 172 173
-174 -166
-174 -169
166 169 174
-175 -170
-175 -174
170 174 175
-176 -34
-176 35
34 -35 176
-177 34
-177 -35
-34 35 177
-178 -176
-178 -177
176 177 178
-179 34
-179 35
-34 -35 179
-180 175
-180 -178
-175 178 180
-181 -175
-181 178
175 -178 181
-182 -180
-182 -181
180 181 182
-183 -175
-183 -178
175 178 183
-184 -179
-184 -183
179 183 184
-185 -35
-185 36
35 -36 185
-186 35
-186 -36
-35 36 186
-187 -185
-187 -186
185 186 187
-188 35
-188 36
-35 -36 188
-189 184
-189 -187
-184 187 189
-190 -184
-190 187
184 -187 190
-191 -189
-191 -190
189 190 191
-192 -184
-192 -187
184 187 192
-193 -188
-193 -192
188 192 193
-194 -36
-194 37
36 -37 194
-195 36
-195 -37
-36 37 195
-196 -194
-196 -195
194 195 196
-197 36
-197 37
-36 -37 197
-198 193
-198 -196
-193 196 198
-199 -193
-199 196
193 -196 199
-200 -198
-200 -199
198 199 200
-201 -193
-201 -196
193 196 201
-202 -197
-202 -201
197 201 202
-203 -37
-203 38
37 -38 203
-204 37
-204 -38
-37 38 204
-205 -203
-205 -204
203 204 205
-206 37
-206 38
-37 -38 206
-207 202
-207 -205
-202 205 207
-208 -202
-208 205
202 -205 208
-209 -207
-209 -208
207 208 209
-210 -202
-210 -205
202 205 210
-211 -206
-211 -210
206 210 211
-212 -38
-212 39
38 -39 212
-213 38
-213 -39
-38 39 213
-214 -212
-214 -213
212 213 214
-215 38
-215 39
-38 -39 215
-216 211
-216 -214
-211 214 216
-217 -211
-217 214
211 -214 217
-218 -216
-218 -217
216 217 218
-219 -211
-219 -214
211 214 219
-220 -215
-220 -219
215 219 220
-221 -39
-221 40
39 -40 221
-222 39
-222 -40
-39 40 222
-223 -221
-223 -222
221 222 223
-224 39
-224 40
-39 -40 224
-225 220
-225 -223
-220 223 225
-226 -220
-226 223
220 -223 226
-227 -225
-227 -226
225 226 227
-228 -220
-228 -223
220 223 228
-229 -224
-229 -228
224 228 229
-230 -40
-230 41
40 -41 230
-231 40
-231 -41
-40 41 231
-232 -230
-232 -231
230 231 232
-233 40
-233 41
-40 -41 233
-234 229
-234 -232
-229 232 234
-235 -229
-235 232
229 -232 235
-236 -234
-236 -235
234 235 236
-237 -229
-237 -232
229 232 237
-238 -233
-238 -237
233 237 238
-239 -41
-239 42
41 -42 239
-240 41
-240 -42
-41 42 240
-241 -239
-241 -240
239 240 241
-242 41
-242 42
-41 -42 242
-243 238
-243 -241
-238 241 243
-244 -238
-244 241
238 -241 244
-245 -243
-245 -244
243 244 245
-246 -238
-246 -241
238 241 246
-247 -242
-247 -246
242 246 247
-248 -42
-248 43
42 -43 248
-249 42
-249 -43
-42 43 249
-250 -248
-250 -249
248 249 250
-251 42
-251 43
-42 -43 251
-252 247
-252 -250
-247 250 252
-253 -247
-253 250
247 -250 253
-254 -252
-254 -253
252 253 254
-255 -247
-255 -250
247 250 255
-256 -251
-256 -255
251 255 256
-257 -43
-257 44
43 -44 257
-258 43
-258 -44
-43 44 258
-259 -257
-259 -258
257 258 259
-260 43
-260 44
-43 -44 260
-261 256
-261 -259
-256 259 261
-262 -256
-262 259
256 -259 262
-263 -261
-263 -262
261 262 263
-264 -256
-264 -259
256 259 264
-265 -260
-265 -264
260 264 265
-266 -44
-266 45
44 -45 266
-267 44
-267 -45
-44 45 267
-268 -266
-268 -267
266 267 268
-269 44
-269 45
-44 -45 269
-270 265
-270 -268
-265 268 270
-271 -265
-271 268
265 -268 271
-272 -270
-272 -271
270 271 272
-273 -265
-273 -268
265 268 273
-274 -269
-274 -273
269 273 274
-275 -45
-275 46
45 -46 275
-276 45
-276 -46
-45 46 276
-277 -275
-277 -276
275 276 277
-278 45
-278 46
-45 -46 278
-279 274
-279 -277
-274 277 279
-280 -274
-280 277
274 -277 280
-281 -279
-281 -280
279 280 281
-282 -274
-282 -277
274 277 282
-283 -278
-283 -282
278 282 283
-284 -46
-284 47
46 -47 284
-285 46
-285 -47
-46 47 285
-286 -284
-286 -285
284 285 286
-287 46
-287 47
-46 -47 287
-288 283
-288 -286
-283 286 288
-289 -283
-289 286
283 -286 289
-290 -288
-290 -289
288 289 290
-291 -283
-291 -286
283 286 291
-292 -287
-292 -291
287 291 292
-293 -47
-293 48
47 -48 293
-294 47
-294 -48
-47 48 294
-295 -293
-295 -294
293 294 295
-296 47
-296 48
-47 -48 296
-297 292
-297 -295
-292 295 297
-298 -292
-298 295
292 -295 298
-299 -297
-299 -298
297 298 299
-300 -292
-300 -295
292 295 300
-301 -296
-301 -300
296 300 301
-302 -48
-302 49
48 -49 302
-303 48
-303 -49
-48 49 303
-304 -302
-304 -303
302 303 304
-305 48
-305 49
-48 -49 305
-306 301
-306 -304
-301 304 306
-307 -301
-307 304
301 -304 307
-308 -306
-308 -307
306 307 308
-309 -301
-309 -304
301 304 309
-310 -305
-310 -309
305 309 310
-311 -49
-311 50
49 -50 311
-312 49
-312 -50
-49 50 312
-313 -311
-313 -312
311 312 313
-314 49
-314 50
-49 -50 314
-315 310
-315 -313
-310 313 315
-316 -310
-316 313
310 -313 316
-317 -315
-317 -316
315 316 317
-318 -310
-318 -313
310 313 318
-319 -314
-319 -318
314 318 319
-320 -50
-320 51
50 -51 320
-321 50
-321 -51
-50 51 321
-322 -320
-322 -321
320 321 322
-323 50
-323 51
-50 -51 323
-324 319
-324 -322
-319 322 324
-325 -319
-325 322
319 -322 325
-326 -324
-326 -325
324 325 326
-327 -319
-327 -322
319 322 327
-328 -323
-328 -327
323 327 328
-329 -51
-329 52
51 -52 329
-330 51
-330 -52
-51 52 330
-331 -329
-331 -330
329 330 331
-332 51
-332 52
-51 -52 332
-333 328
-333 -331
-328 331 333
-334 -328
-334 331
328 -331 334
-335 -333
-335 -334
333 334 335
-336 -328
-336 -331
328 331 336
-337 -332
-337 -336
332 336 337
-338 -52
-338 53
52 -53 338
-339 52
-339 -53
-52 53 339
-340 -338
-340 -339
338 339 340
-341 52
-341 53
-52 -53 341
-342 337
-342 -340
-337 340 342
-343 -337
-343 340
337 -340 343
-344 -342
-344 -343
342 343 344
-345 -337
-345 -340
337 340 345
-346 -341
-346 -345
341 345 346
-347 -53
-347 54
53 -54 347
-348 53
-348 -54
-53 54 348
-349 -347
-349 -348
347 348 349
-350 53
-350 54
-53 -54 350
-351 346
-351 -349
-346 349 351
-352 -346
-352 349
346 -349 352
-353 -351
-353 -352
351 352 353
-354 -346
-354 -349
346 349 354
-355 -350
-355 -354
350 354 355
-356 -54
-356 55
54 -55 356
-357 54
-357 -55
-54 55 357
-358 -356
-358 -357
356 357 358
-359 54
-359 55
-54 -55 359
-360 355
-360 -358
-355 358 360
-361 -355
-361 358
355 -358 361
-362 -360
-362 -361
360 361 362
-363 -355
-363 -358
355 358 363
-364 -359
-364 -363
359 363 364
-365 24
-365 -92
-24 92 365
-366 -24
-366 26
24 -26 366
-367 -365
-367 -366
365 366 367
-368 24
-368 -101
-24 101 368
-369 -24
-369 27
24 -27 369
-370 -368
-370 -369
368 369 370
-371 24
-371 -110
-24 110 371
-372 -24
-372 28
24 -28 372
-373 -371
-373 -372
371 372 373
-374 24
-374 -119
-24 119 374
-375 -24
-375 29
24 -29 375
-376 -374
-376 -375
374 375 376
-377 24
-377 -128
-24 128 377
-378 -24
-378 30
24 -30 378
-379 -377
-379 -378
377 378 379
-380 24
-380 -137
-24 137 380
-381 -24
-381 31
24 -31 381
-382 -380
-382 -381
380 381 382
-383 24
-383 -146
-24 146 383
-384 -24
-384 32
24 -32 384
-385 -383
-385 -384
383 384 385
-386 24
-386 -155
-24 155 386
-387 -24
-387 33
24 -33 387
-388 -386
-388 -387
386 387 388
-389 24
-389 -164
-24 164 389
-390 -24
-390 34
24 -34 390
-391 -389
-391 -390
389 390 391
-392 24
-392 -173
-24 173 392
-393 -24
-393 35
24 -35 393
-394 -392
-394 -393
392 393 394
-395 24
-395 -182
-24 182 395
-396 -24
-396 36
24 -36 396
-397 -395
-397 -396
395 396 397
-398 24
-398 -191
-24 191 398
-399 -24
-399 37
24 -37 399
-400 -398
-400 -399
398 399 400
-401 24
-401 -200
-24 200 401
-402 -24
-402 38
24 -38 402
-403 -401
-403 -402
401 402 403
-404 24
-404 -209
-24 209 404
-405 -24
-405 39
24 -39 405
-406 -404
-406 -405
404 405 406
-407 24
-407 -218
-24 218 407
-408 -24
-408 40
24 -40 408
-409 -407
-409 -408
407 408 409
-410 24
-410 -227
-24 227 410
-411 -24
-411 41
24 -41 411
-412 -410
-412 -411
410 411 412
-413 24
-413 -236
-24 236 413
-414 -24
-414 42
24 -42 414
-415 -413
-415 -414
413 414 415
-416 24
-416 -245
-24 245 416
-417 -24
-417 43
24 -43 417
-418 -416
-418 -417
416 417 418
-419 24
-419 -254
-24 254 419
-420 -24
-420 44
24 -44 420
-421 -419
-421 -420
419 420 421
-422 24
-422 -263
-24 263 422
-423 -24
-423 45
24 -45 423
-424 -422
-424 -423
422 423 424
-425 24
-425 -272
-24 272 425
-426 -24
-426 46
24 -46 426
-427 -425
-427 -426
425 426 427
-428 24
-428 -281
-24 281 428
-429 -24
-429 47
24 -47 429
-430 -428
-430 -429
428 429 430
-431 24
-431 -290
-24 290 431
-432 -24
-432 48
24 -48 432
-433 -431
-433 -432
431 432 433
-434 24
-434 -299
-24 299 434
-435 -24
-435 49
24 -49 435
-436 -434
-436 -435
434 435 436
-437 24
-437 -308
-24 308 437
-438 -24
-438 50
24 -50 438
-439 -437
-439 -438
437 438 439
-440 24
-440 -317
-24 317 440
-441 -24
-441 51
24 -51 441
-442 -440
-442 -441
440 441 442
-443 24
-443 -326
-24 326 443
-444 -24
-444 52
24 -52 444
-445 -443
-445 -444
443 444 445
-446 24
-446 -335
-24 335 446
-447 -24
-447 53
24 -53 447
-448 -446
-448 -447
446 447 448
-449 24
-449 -344
-24 344 449
-450 -24
-450 54
24 -54 450
-451 -449
-451 -450
449 450 451
-452 24
-452 -353
-24 353 452
-453 -24
-453 55
24 -55 453
-454 -452
-454 -453
452 453 454
-455 24
-455 -362
-24 362 455
-456 1
-456 85
-1 -85 456
-457 -85
-457 86
85 -86 457
-458 -456
-458 -457
456 457 458
-459 2
-459 85
-2 -85 459
-460 -85
-460 -367
85 367 460
-461 -459
-461 -460
459 460 461
-462 3
-462 85
-3 -85 462
-463 -85
-463 -370
85 370 463
-464 -462
-464 -463
462 463 464
-465 4
-465 85
-4 -85 465
-466 -85
-466 -373
85 373 466
-467 -465
-467 -466
465 466 467
-468 5
-468 85
-5 -85 468
-469 -85
-469 -376
85 376 469
-470 -468
-470 -469
468 469 470
-471 6
-471 85
-6 -85 471
-472 -85
-472 -379
85 379 472
-473 -471
-473 -472
471 472 473
-474 7
-474 85
-7 -85 474
-475 -85
-475 -382
85 382 475
-476 -474
-476 -475
474 475 476
-477 8
-477 85
-8 -85 477
-478 -85
-478 -385
85 385 478
-479 -477
-479 -478
477 478 479
-480 9
-480 85
-9 -85 480
-481 -85
-481 -388
85 388 481
-482 -480
-482 -481
480 481 482
-483 10
-483 85
-10 -85 483
-484 -85
-484 -391
85 391 484
-485 -483
-485 -484
483 484 485
-486 11
-486 85
-11 -85 486
-487 -85
-487 -394
85 394 487
-488 -486
-488 -487
486 487 488
-489 12
-489 85
-12 -85 489
-490 -85
-490 -397
85 397 490
-491 -489
-491 -490
489 490 491
-492 13
-492 85
-13 -85 492
-493 -85
-493 -400
85 400 493
-494 -492
-494 -493
492 493 494
-495 14
-495 85
-14 -85 495
-496 -85
-496 -403
85 403 496
-497 -495
-497 -496
495 496 497
-498 15
-498 85
-15 -85 498
-499 -85
-499 -406
85 406 499
-500 -498
-500 -499
498 499 500
-501 16
-501 85
-16 -85 501
-502 -85
-502 -409
85 409 502
-503 -501
-503 -502
501 502 503
-504 17
-504 85
-17 -85 504
-505 -85
-505 -412
85 412 505
-506 -504
-506 -505
504 505 506
-507 18
-507 85
-18 -85 507
-508 -85
-508 -415
85 415 508
-509 -507
-509 -508
507 508 509
-510 19
-510 85
-19 -85 510
-511 -85
-511 -418
85 418 511
-512 -510
-512 -511
510 511 512
-513 20
-513 85
-20 -85 513
-514 -85
-514 -421
85 421 514
-515 -513
-515 -514
513 514 515
-516 21
-516 85
-21 -85 516
-517 -85
-517 -424
85 424 517
-518 -516
-518 -517
516 517 518
-519 22
-519 85
-22 -85 519
-520 -85
-520 -427
85 427 520
-521 -519
-521 -520
519 520 521
-522 23
-522 85
-23 -85 522
-523 -85
-523 -430
85 430 523
-524 -522
-524 -523
522 523 524
-525 -85
-525 -433
85 433 525
-526 -85
-526 -436
85 436 526
-527 -85
-527 -439
85 439 527
-528 -85
-528 -442
85 442 528
-529 -85
-529 -445
85 445 529
-530 -85
-530 -448
85 448 530
-531 -85
-531 -451
85 451 531
-532 -85
-532 -454
85 454 532
-533 -85
-533 455
85 -455 533
-534 -55
-534 364
55 -364 534
-535 24
-535 -534
-24 534 535
535
